
n_res = 8;
rcap = [26, 26, 25, 29, 738, 852, 929, 868];
rtype = [1, 1, 1, 1, 2, 2, 2, 2];
n_tasks = 50;
modes =  [{1, 2, 3, 4, 5, 6, 7, 8, 9}, {10, 11, 12, 13, 14, 15, 16, 17, 18}, {19, 20, 21, 22, 23, 24, 25, 26, 27}, {28, 29, 30, 31, 32, 33, 34, 35, 36}, {37, 38, 39, 40, 41, 42, 43, 44, 45}, {46, 47, 48, 49, 50, 51, 52, 53, 54}, {55, 56, 57, 58, 59, 60, 61, 62, 63}, {64, 65, 66, 67, 68, 69, 70, 71, 72}, {73, 74, 75, 76, 77, 78, 79, 80, 81}, {82, 83, 84, 85, 86, 87, 88, 89, 90}, {91, 92, 93, 94, 95, 96, 97, 98, 99}, {100, 101, 102, 103, 104, 105, 106, 107, 108}, {109, 110, 111, 112, 113, 114, 115, 116, 117}, {118, 119, 120, 121, 122, 123, 124, 125, 126}, {127, 128, 129, 130, 131, 132, 133, 134, 135}, {136, 137, 138, 139, 140, 141, 142, 143, 144}, {145, 146, 147, 148, 149, 150, 151, 152, 153}, {154, 155, 156, 157, 158, 159, 160, 161, 162}, {163, 164, 165, 166, 167, 168, 169, 170, 171}, {172, 173, 174, 175, 176, 177, 178, 179, 180}, {181, 182, 183, 184, 185, 186, 187, 188, 189}, {190, 191, 192, 193, 194, 195, 196, 197, 198}, {199, 200, 201, 202, 203, 204, 205, 206, 207}, {208, 209, 210, 211, 212, 213, 214, 215, 216}, {217, 218, 219, 220, 221, 222, 223, 224, 225}, {226, 227, 228, 229, 230, 231, 232, 233, 234}, {235, 236, 237, 238, 239, 240, 241, 242, 243}, {244, 245, 246, 247, 248, 249, 250, 251, 252}, {253, 254, 255, 256, 257, 258, 259, 260, 261}, {262, 263, 264, 265, 266, 267, 268, 269, 270}, {271, 272, 273, 274, 275, 276, 277, 278, 279}, {280, 281, 282, 283, 284, 285, 286, 287, 288}, {289, 290, 291, 292, 293, 294, 295, 296, 297}, {298, 299, 300, 301, 302, 303, 304, 305, 306}, {307, 308, 309, 310, 311, 312, 313, 314, 315}, {316, 317, 318, 319, 320, 321, 322, 323, 324}, {325, 326, 327, 328, 329, 330, 331, 332, 333}, {334, 335, 336, 337, 338, 339, 340, 341, 342}, {343, 344, 345, 346, 347, 348, 349, 350, 351}, {352, 353, 354, 355, 356, 357, 358, 359, 360}, {361, 362, 363, 364, 365, 366, 367, 368, 369}, {370, 371, 372, 373, 374, 375, 376, 377, 378}, {379, 380, 381, 382, 383, 384, 385, 386, 387}, {388, 389, 390, 391, 392, 393, 394, 395, 396}, {397, 398, 399, 400, 401, 402, 403, 404, 405}, {406, 407, 408, 409, 410, 411, 412, 413, 414}, {415, 416, 417, 418, 419, 420, 421, 422, 423}, {424, 425, 426, 427, 428, 429, 430, 431, 432}, {433, 434, 435, 436, 437, 438, 439, 440, 441}, {442, 443, 444, 445, 446, 447, 448, 449, 450}];
succ =  [{24, 22, 21, 20, 17, 12, 9, 8, 6}, {35, 27, 26, 25, 22, 21, 20, 19, 17, 16}, {32, 27, 25, 24, 21, 20, 16, 15, 13}, {32, 29, 22, 20, 15, 11}, {35, 32, 30, 29, 22, 16}, {31, 27, 16, 15}, {35, 31, 30, 27, 16}, {34, 32, 30, 26, 16}, {49, 41, 37, 36, 35, 33, 32, 31, 30, 28}, {43, 36, 35, 32, 31, 23}, {36, 35, 31, 30, 23}, {31, 15}, {43, 36, 35, 34, 23}, {34, 16}, {49, 41, 37, 36, 35, 33, 30, 28}, {43, 36, 23}, {36, 32, 23}, {36, 34, 23}, {50, 49, 43, 41, 37, 34, 33, 28}, {50, 49, 43, 41, 33, 31, 28}, {49, 48, 37, 33, 29, 28}, {50, 49, 43, 41, 38, 37, 34, 33}, {50, 49, 48, 41, 37, 33, 28}, {50, 49, 41, 34, 28}, {50, 49, 48, 41, 39, 38, 36, 33}, {49, 48, 43, 42, 39, 33}, {50, 42, 37, 36, 34}, {47, 46, 42, 39, 38}, {41, 39, 36}, {50, 48, 43, 40}, {44, 34}, {39, 38}, {47, 46, 40}, {48, 46, 39}, {47, 45, 40}, {47, 46, 44}, {45, 44}, {40}, {45}, {44}, {45}, {44}, {45}, {}, {}, {}, {}, {}, {}, {}];
n_opt = 450;
dur = [10, 18, 20, 21, 22, 23, 24, 25, 27, 4, 5, 8, 12, 13, 14, 21, 25, 30, 2, 3, 5, 9, 20, 22, 23, 25, 26, 3, 4, 6, 10, 12, 16, 18, 22, 27, 2, 3, 4, 9, 15, 16, 27, 28, 29, 3, 4, 5, 6, 20, 21, 23, 26, 28, 5, 9, 11, 13, 21, 24, 26, 27, 29, 1, 3, 4, 11, 12, 15, 16, 19, 28, 1, 2, 13, 21, 22, 23, 24, 27, 30, 6, 7, 12, 15, 17, 21, 22, 24, 25, 2, 3, 5, 6, 18, 19, 25, 27, 29, 1, 2, 13, 14, 15, 17, 24, 28, 29, 1, 2, 3, 4, 6, 14, 16, 20, 27, 1, 2, 4, 9, 16, 22, 23, 25, 29, 5, 8, 10, 11, 12, 14, 18, 23, 30, 6, 7, 10, 11, 12, 17, 26, 27, 28, 3, 5, 6, 13, 22, 23, 24, 26, 27, 4, 5, 7, 8, 9, 12, 17, 24, 25, 6, 7, 8, 12, 15, 16, 17, 18, 24, 4, 5, 6, 10, 11, 16, 21, 28, 29, 3, 8, 13, 15, 16, 17, 21, 22, 26, 8, 10, 11, 12, 15, 23, 25, 26, 27, 3, 7, 9, 12, 20, 23, 24, 25, 26, 2, 4, 9, 10, 13, 22, 24, 25, 26, 1, 6, 8, 9, 12, 18, 22, 24, 26, 1, 5, 10, 16, 19, 20, 22, 28, 29, 1, 10, 11, 19, 20, 26, 27, 28, 29, 1, 2, 7, 8, 15, 17, 21, 24, 25, 2, 5, 6, 7, 9, 10, 17, 18, 24, 5, 6, 16, 17, 18, 19, 22, 23, 24, 4, 4, 5, 6, 15, 20, 21, 22, 24, 9, 10, 16, 17, 21, 22, 23, 24, 28, 4, 5, 6, 7, 8, 16, 17, 19, 29, 5, 6, 14, 19, 23, 24, 28, 29, 30, 2, 8, 11, 13, 16, 17, 18, 19, 20, 3, 4, 6, 8, 9, 10, 14, 21, 28, 14, 15, 16, 17, 18, 21, 24, 29, 30, 5, 6, 7, 9, 10, 11, 13, 21, 23, 1, 9, 14, 18, 19, 24, 26, 27, 28, 2, 9, 12, 16, 19, 23, 26, 28, 30, 1, 13, 14, 15, 16, 18, 20, 28, 29, 5, 6, 7, 8, 15, 16, 17, 18, 19, 3, 6, 7, 16, 17, 19, 24, 26, 27, 8, 11, 16, 17, 18, 20, 21, 23, 29, 1, 4, 7, 11, 12, 14, 16, 19, 24, 4, 6, 7, 9, 11, 12, 16, 17, 25, 4, 5, 13, 15, 16, 22, 23, 26, 28, 1, 2, 6, 7, 8, 9, 10, 14, 28, 5, 6, 11, 13, 14, 17, 18, 22, 25, 2, 3, 7, 12, 15, 17, 18, 20, 25];
rreq = [|4, 4, 4, 4, 4, 4, 4, 4, 4, 4, 4, 4, 3, 2, 2, 1, 1, 1, 1, 1, 1, 1, 1, 1, 1, 1, 1, 2, 2, 2, 2, 2, 2, 2, 2, 2, 5, 4, 4, 4, 4, 4, 4, 4, 4, 3, 3, 3, 3, 3, 3, 3, 3, 3, 2, 1, 1, 1, 1, 1, 1, 1, 1, 4, 3, 3, 3, 3, 3, 3, 3, 3, 3, 3, 3, 3, 3, 3, 3, 3, 3, 5, 4, 3, 3, 3, 2, 1, 1, 1, 5, 4, 4, 4, 4, 4, 4, 4, 4, 4, 4, 3, 3, 2, 2, 2, 1, 1, 4, 4, 4, 4, 4, 4, 4, 4, 4, 1, 1, 1, 1, 1, 1, 1, 1, 1, 4, 4, 4, 4, 4, 4, 4, 4, 4, 4, 3, 3, 3, 3, 3, 3, 3, 3, 3, 3, 3, 3, 3, 3, 3, 3, 3, 5, 4, 4, 4, 3, 3, 3, 3, 3, 2, 1, 1, 1, 1, 1, 1, 1, 1, 4, 4, 3, 3, 2, 2, 2, 1, 1, 5, 4, 4, 4, 3, 3, 2, 2, 2, 4, 4, 4, 4, 4, 4, 4, 4, 4, 4, 3, 3, 3, 3, 2, 2, 2, 2, 2, 2, 2, 2, 1, 1, 1, 1, 1, 5, 5, 5, 5, 5, 5, 5, 5, 5, 3, 3, 3, 3, 3, 3, 3, 3, 3, 2, 1, 1, 1, 1, 1, 1, 1, 1, 4, 4, 4, 4, 4, 3, 3, 3, 3, 4, 3, 3, 2, 2, 2, 2, 1, 1, 4, 3, 3, 3, 2, 2, 2, 2, 2, 4, 4, 4, 4, 4, 4, 4, 4, 4, 3, 3, 3, 3, 3, 3, 3, 3, 3, 5, 4, 4, 4, 3, 3, 3, 3, 3, 5, 4, 4, 4, 4, 4, 4, 4, 4, 3, 2, 2, 2, 2, 2, 2, 2, 2, 3, 3, 3, 3, 3, 3, 3, 3, 3, 4, 3, 3, 3, 3, 3, 3, 3, 3, 3, 3, 3, 3, 3, 3, 3, 3, 3, 2, 2, 2, 2, 1, 1, 1, 1, 1, 2, 2, 2, 2, 2, 2, 2, 2, 2, 4, 3, 3, 3, 2, 2, 1, 1, 1, 4, 4, 4, 3, 3, 3, 3, 2, 2, 3, 3, 3, 3, 3, 2, 2, 2, 2, 3, 3, 3, 3, 3, 3, 3, 3, 3, 5, 5, 5, 5, 5, 5, 5, 5, 5, 5, 4, 3, 3, 2, 2, 1, 1, 1, 5, 5, 5, 5, 5, 5, 5, 5, 5, 4, 4, 4, 4, 4, 3, 3, 3, 3, 5, 4, 4, 3, 3, 3, 3, 2, 2, 5, 4, 4, 4, 4, 4, 4, 4, 4
 |4, 4, 4, 4, 4, 3, 3, 3, 3, 2, 2, 2, 2, 2, 2, 2, 2, 2, 4, 4, 4, 4, 4, 4, 4, 4, 4, 3, 3, 3, 3, 2, 2, 2, 2, 2, 3, 2, 2, 2, 2, 2, 2, 2, 2, 2, 1, 1, 1, 1, 1, 1, 1, 1, 5, 4, 4, 4, 4, 4, 4, 4, 4, 4, 4, 4, 4, 3, 3, 2, 2, 2, 3, 3, 3, 3, 3, 3, 3, 3, 3, 5, 5, 5, 5, 5, 5, 5, 5, 5, 2, 2, 2, 2, 2, 2, 2, 2, 2, 2, 2, 2, 2, 2, 2, 2, 2, 2, 4, 3, 3, 3, 3, 2, 2, 2, 2, 4, 4, 4, 3, 3, 3, 2, 2, 2, 5, 4, 4, 3, 3, 3, 2, 2, 2, 4, 3, 3, 3, 3, 3, 3, 3, 3, 5, 5, 5, 5, 5, 5, 5, 5, 5, 3, 3, 3, 3, 3, 3, 3, 3, 3, 3, 2, 2, 2, 1, 1, 1, 1, 1, 3, 2, 2, 2, 2, 2, 2, 2, 2, 4, 4, 4, 4, 4, 4, 4, 4, 4, 5, 4, 4, 4, 4, 3, 3, 3, 3, 4, 4, 4, 3, 3, 3, 3, 2, 2, 4, 4, 4, 3, 3, 2, 1, 1, 1, 4, 4, 4, 4, 4, 4, 4, 4, 4, 4, 3, 3, 3, 3, 3, 3, 3, 3, 3, 3, 3, 3, 3, 3, 3, 3, 3, 4, 4, 4, 4, 4, 4, 4, 4, 4, 5, 4, 4, 4, 4, 4, 4, 4, 4, 2, 1, 1, 1, 1, 1, 1, 1, 1, 4, 4, 4, 4, 4, 3, 3, 3, 3, 5, 4, 4, 3, 3, 2, 2, 1, 1, 4, 4, 4, 4, 4, 4, 4, 4, 4, 3, 3, 3, 3, 3, 3, 3, 3, 3, 4, 4, 4, 4, 3, 3, 3, 3, 3, 1, 1, 1, 1, 1, 1, 1, 1, 1, 2, 2, 2, 2, 2, 2, 2, 2, 2, 1, 1, 1, 1, 1, 1, 1, 1, 1, 4, 3, 3, 3, 2, 2, 2, 2, 2, 5, 4, 4, 4, 4, 4, 4, 4, 4, 3, 3, 3, 3, 3, 3, 3, 3, 3, 4, 4, 4, 3, 2, 2, 1, 1, 1, 3, 2, 2, 2, 2, 2, 2, 2, 2, 4, 4, 4, 4, 4, 4, 4, 4, 4, 3, 2, 2, 2, 1, 1, 1, 1, 1, 4, 4, 4, 3, 3, 3, 2, 2, 2, 4, 3, 3, 3, 3, 3, 3, 3, 3, 5, 4, 4, 4, 4, 4, 4, 4, 4, 2, 2, 2, 2, 2, 2, 2, 2, 2, 4, 3, 3, 3, 3, 2, 2, 2, 2
 |4, 4, 4, 3, 2, 2, 1, 1, 1, 3, 3, 3, 2, 2, 2, 1, 1, 1, 5, 4, 3, 3, 2, 2, 1, 1, 1, 2, 2, 2, 2, 2, 2, 2, 2, 2, 4, 4, 4, 4, 4, 4, 4, 4, 4, 2, 2, 2, 2, 2, 2, 2, 2, 2, 3, 3, 3, 3, 3, 3, 3, 3, 3, 4, 4, 4, 4, 4, 4, 4, 4, 4, 3, 3, 3, 3, 3, 3, 3, 3, 3, 3, 3, 3, 3, 3, 3, 3, 3, 3, 5, 4, 4, 3, 3, 3, 2, 2, 2, 3, 3, 3, 3, 3, 3, 3, 3, 3, 4, 4, 4, 3, 2, 2, 1, 1, 1, 4, 4, 4, 3, 3, 3, 2, 2, 2, 2, 1, 1, 1, 1, 1, 1, 1, 1, 5, 4, 4, 4, 3, 3, 2, 2, 2, 5, 4, 4, 4, 3, 3, 3, 3, 3, 4, 3, 3, 3, 3, 3, 3, 3, 3, 5, 4, 4, 4, 4, 4, 4, 4, 4, 5, 5, 5, 5, 5, 5, 5, 5, 5, 5, 4, 4, 4, 4, 4, 4, 4, 4, 1, 1, 1, 1, 1, 1, 1, 1, 1, 2, 2, 2, 2, 2, 1, 1, 1, 1, 4, 3, 3, 3, 2, 2, 2, 1, 1, 4, 4, 4, 4, 4, 4, 4, 4, 4, 1, 1, 1, 1, 1, 1, 1, 1, 1, 4, 4, 4, 4, 4, 3, 3, 3, 3, 2, 1, 1, 1, 1, 1, 1, 1, 1, 4, 3, 3, 3, 3, 2, 2, 2, 2, 3, 3, 3, 3, 2, 2, 1, 1, 1, 3, 3, 3, 3, 3, 3, 3, 3, 3, 2, 2, 2, 2, 2, 2, 2, 2, 2, 4, 4, 4, 4, 3, 3, 3, 2, 2, 4, 4, 4, 4, 4, 4, 4, 4, 4, 5, 4, 4, 4, 3, 3, 3, 3, 3, 4, 3, 3, 3, 3, 3, 3, 3, 3, 5, 4, 4, 4, 4, 3, 3, 3, 3, 5, 4, 4, 4, 3, 3, 2, 2, 2, 4, 3, 3, 3, 3, 3, 3, 3, 3, 2, 2, 2, 2, 2, 1, 1, 1, 1, 5, 4, 4, 4, 4, 4, 4, 4, 4, 4, 4, 4, 3, 3, 2, 2, 1, 1, 4, 3, 3, 3, 3, 3, 3, 3, 3, 5, 4, 4, 4, 4, 4, 4, 4, 4, 4, 3, 3, 3, 2, 2, 2, 2, 2, 2, 1, 1, 1, 1, 1, 1, 1, 1, 3, 2, 2, 2, 1, 1, 1, 1, 1, 3, 3, 3, 2, 2, 2, 2, 1, 1, 2, 1, 1, 1, 1, 1, 1, 1, 1, 3, 2, 2, 2, 2, 1, 1, 1, 1
 |3, 2, 2, 2, 2, 2, 2, 2, 2, 2, 2, 2, 2, 2, 1, 1, 1, 1, 4, 4, 4, 3, 3, 3, 2, 2, 2, 3, 3, 3, 3, 3, 3, 3, 3, 3, 4, 3, 3, 2, 2, 2, 1, 1, 1, 4, 4, 4, 4, 4, 3, 3, 3, 3, 3, 3, 3, 3, 3, 2, 2, 2, 2, 3, 2, 2, 2, 2, 1, 1, 1, 1, 5, 4, 4, 3, 3, 3, 3, 2, 2, 1, 1, 1, 1, 1, 1, 1, 1, 1, 5, 4, 4, 4, 4, 4, 4, 4, 4, 4, 3, 3, 3, 2, 2, 2, 2, 2, 5, 4, 4, 4, 3, 3, 3, 3, 3, 4, 3, 3, 3, 3, 2, 2, 2, 2, 3, 2, 2, 2, 2, 1, 1, 1, 1, 4, 4, 4, 4, 4, 4, 4, 4, 4, 4, 4, 4, 3, 3, 3, 2, 2, 2, 4, 3, 3, 3, 2, 2, 2, 2, 2, 4, 3, 3, 3, 3, 3, 3, 3, 3, 4, 4, 4, 4, 4, 4, 4, 4, 4, 4, 4, 3, 3, 3, 2, 1, 1, 1, 4, 4, 4, 4, 3, 3, 2, 2, 2, 4, 4, 3, 3, 2, 2, 1, 1, 1, 5, 5, 5, 5, 5, 5, 5, 5, 5, 5, 5, 5, 5, 5, 5, 5, 5, 5, 2, 2, 2, 2, 2, 2, 2, 2, 2, 3, 3, 3, 3, 2, 2, 1, 1, 1, 3, 3, 3, 3, 3, 3, 3, 3, 3, 5, 4, 3, 3, 2, 2, 1, 1, 1, 4, 4, 4, 4, 4, 3, 3, 3, 3, 1, 1, 1, 1, 1, 1, 1, 1, 1, 4, 3, 3, 3, 3, 3, 3, 3, 3, 3, 3, 3, 3, 3, 3, 3, 3, 3, 2, 2, 2, 2, 2, 2, 2, 2, 2, 4, 4, 4, 3, 2, 2, 2, 1, 1, 4, 3, 3, 3, 3, 3, 3, 3, 3, 3, 2, 2, 2, 2, 1, 1, 1, 1, 4, 3, 3, 3, 3, 3, 3, 3, 3, 4, 4, 4, 4, 4, 3, 3, 3, 3, 3, 2, 2, 2, 1, 1, 1, 1, 1, 5, 4, 4, 4, 3, 3, 3, 2, 2, 4, 4, 4, 4, 3, 3, 3, 3, 3, 4, 4, 4, 4, 4, 4, 4, 4, 4, 2, 2, 2, 2, 2, 2, 2, 2, 2, 5, 5, 5, 5, 5, 5, 5, 5, 5, 5, 4, 4, 4, 3, 3, 3, 3, 3, 4, 4, 4, 4, 4, 4, 4, 4, 4, 4, 3, 3, 3, 2, 2, 2, 1, 1, 4, 4, 4, 4, 4, 4, 4, 4, 4, 4, 4, 4, 4, 3, 3, 3, 3, 3
 |25, 24, 23, 22, 20, 18, 16, 13, 12, 5, 4, 4, 4, 4, 4, 4, 4, 4, 26, 24, 22, 20, 17, 17, 14, 11, 11, 6, 5, 5, 4, 4, 3, 3, 2, 2, 14, 14, 14, 14, 14, 14, 14, 14, 14, 6, 5, 5, 5, 3, 3, 2, 2, 1, 16, 14, 14, 13, 11, 11, 10, 9, 8, 20, 20, 20, 20, 20, 19, 19, 19, 19, 17, 15, 15, 15, 13, 13, 13, 11, 11, 13, 13, 12, 12, 12, 11, 10, 10, 10, 7, 6, 6, 5, 5, 4, 3, 3, 3, 16, 13, 13, 11, 10, 9, 6, 4, 3, 8, 7, 7, 6, 5, 4, 3, 3, 2, 24, 20, 18, 15, 13, 12, 10, 7, 5, 8, 7, 7, 6, 6, 6, 5, 4, 4, 7, 7, 7, 6, 6, 6, 5, 5, 5, 19, 18, 16, 15, 14, 13, 12, 12, 11, 12, 12, 10, 9, 8, 7, 6, 4, 4, 7, 7, 7, 6, 6, 5, 4, 4, 4, 29, 24, 23, 22, 18, 17, 14, 11, 9, 17, 13, 12, 10, 9, 8, 6, 4, 1, 21, 20, 20, 20, 20, 19, 19, 19, 19, 18, 18, 18, 18, 17, 17, 17, 17, 17, 23, 21, 20, 18, 18, 16, 15, 13, 12, 21, 19, 19, 18, 16, 15, 14, 12, 12, 10, 10, 9, 8, 7, 7, 6, 6, 5, 2, 2, 2, 2, 2, 1, 1, 1, 1, 22, 20, 17, 15, 14, 13, 12, 10, 7, 12, 12, 11, 10, 8, 6, 6, 3, 2, 20, 19, 18, 17, 17, 16, 16, 15, 14, 9, 8, 8, 8, 8, 7, 7, 7, 7, 23, 21, 19, 19, 17, 15, 13, 10, 10, 19, 19, 19, 19, 19, 19, 19, 19, 19, 27, 25, 23, 21, 18, 15, 13, 11, 8, 23, 20, 20, 18, 16, 15, 13, 12, 10, 5, 4, 4, 3, 3, 2, 2, 1, 1, 18, 16, 15, 14, 12, 10, 7, 6, 4, 23, 21, 19, 18, 16, 14, 11, 11, 7, 30, 29, 29, 28, 28, 27, 26, 26, 26, 25, 23, 19, 18, 16, 15, 11, 10, 7, 17, 15, 15, 15, 14, 14, 13, 13, 12, 27, 25, 23, 22, 18, 17, 15, 11, 11, 12, 11, 11, 11, 10, 10, 10, 10, 10, 17, 17, 17, 16, 16, 16, 15, 15, 15, 26, 24, 23, 23, 22, 20, 20, 19, 18, 19, 16, 13, 12, 10, 7, 7, 3, 2, 18, 16, 13, 12, 9, 9, 6, 5, 3, 27, 25, 23, 18, 18, 13, 12, 7, 4, 16, 16, 16, 16, 15, 15, 15, 14, 14, 12, 12, 10, 10, 8, 7, 6, 3, 2
 |14, 14, 13, 11, 9, 9, 7, 5, 5, 16, 14, 13, 13, 12, 11, 10, 10, 9, 23, 22, 22, 21, 21, 20, 20, 18, 18, 2, 2, 2, 2, 2, 2, 2, 2, 2, 23, 23, 20, 15, 13, 10, 7, 6, 4, 16, 15, 14, 12, 12, 11, 8, 8, 7, 29, 28, 28, 28, 28, 28, 28, 28, 28, 26, 25, 25, 25, 25, 25, 25, 25, 25, 24, 23, 21, 18, 17, 15, 15, 13, 11, 14, 14, 12, 11, 10, 10, 9, 7, 7, 19, 18, 17, 14, 14, 12, 11, 8, 6, 25, 21, 17, 17, 15, 10, 10, 5, 5, 23, 22, 21, 20, 20, 20, 19, 18, 18, 10, 8, 8, 7, 7, 6, 6, 5, 5, 23, 20, 19, 17, 15, 13, 12, 8, 8, 24, 22, 22, 19, 15, 13, 11, 8, 8, 22, 19, 17, 16, 13, 13, 10, 8, 7, 29, 27, 26, 24, 23, 22, 22, 20, 20, 20, 18, 17, 14, 13, 10, 8, 7, 5, 14, 13, 13, 12, 10, 10, 9, 7, 6, 28, 27, 26, 26, 25, 24, 23, 22, 22, 24, 22, 21, 18, 17, 16, 15, 13, 11, 11, 10, 10, 9, 7, 7, 5, 4, 3, 3, 2, 2, 2, 1, 1, 1, 1, 1, 21, 20, 20, 19, 18, 16, 14, 13, 12, 28, 27, 26, 26, 25, 24, 23, 23, 22, 2, 2, 2, 2, 2, 2, 2, 2, 2, 13, 12, 11, 11, 10, 10, 10, 9, 9, 15, 14, 13, 12, 11, 8, 7, 6, 6, 29, 28, 28, 28, 28, 28, 28, 28, 28, 23, 22, 22, 21, 21, 21, 20, 20, 20, 24, 24, 24, 23, 22, 22, 21, 21, 21, 14, 13, 12, 11, 8, 7, 6, 5, 5, 26, 23, 22, 20, 18, 13, 11, 9, 6, 16, 13, 13, 10, 9, 8, 6, 5, 4, 15, 14, 14, 14, 14, 14, 14, 14, 14, 27, 25, 25, 25, 24, 24, 23, 22, 22, 23, 22, 18, 17, 15, 12, 10, 6, 6, 28, 26, 26, 26, 25, 24, 24, 23, 23, 10, 9, 9, 8, 8, 7, 7, 6, 6, 14, 14, 14, 14, 14, 14, 14, 14, 14, 18, 17, 15, 14, 14, 14, 13, 11, 11, 24, 23, 22, 20, 18, 16, 16, 14, 12, 20, 16, 15, 12, 10, 9, 8, 4, 2, 26, 26, 25, 25, 24, 23, 23, 22, 22, 7, 7, 6, 6, 5, 4, 4, 4, 3, 16, 14, 14, 14, 13, 12, 12, 12, 11, 14, 14, 14, 13, 13, 13, 12, 12, 12, 11, 11, 11, 11, 11, 11, 11, 11, 11, 24, 24, 22, 20, 20, 18, 17, 15, 15
 |26, 24, 24, 24, 22, 22, 21, 21, 20, 15, 13, 11, 11, 9, 8, 7, 5, 4, 13, 12, 12, 11, 11, 11, 10, 9, 9, 22, 21, 20, 20, 20, 19, 18, 18, 18, 10, 10, 10, 10, 10, 10, 10, 10, 10, 21, 17, 14, 12, 9, 9, 7, 4, 2, 27, 22, 22, 20, 15, 13, 12, 10, 6, 25, 23, 22, 21, 20, 17, 15, 14, 13, 22, 21, 20, 19, 19, 18, 18, 18, 17, 26, 24, 21, 21, 17, 15, 13, 11, 7, 26, 23, 23, 20, 17, 13, 12, 8, 5, 19, 18, 17, 17, 15, 14, 12, 11, 10, 7, 7, 7, 6, 6, 6, 6, 5, 5, 25, 20, 18, 15, 14, 12, 7, 5, 3, 27, 27, 27, 27, 26, 26, 26, 26, 26, 29, 25, 22, 18, 18, 14, 13, 7, 7, 20, 19, 19, 19, 19, 19, 19, 19, 19, 5, 4, 4, 4, 4, 3, 3, 3, 3, 26, 24, 23, 22, 20, 20, 19, 18, 17, 25, 24, 22, 19, 15, 13, 10, 8, 6, 16, 16, 16, 16, 16, 15, 15, 15, 15, 24, 20, 19, 19, 17, 14, 14, 12, 9, 17, 17, 17, 17, 17, 17, 17, 17, 17, 30, 27, 23, 21, 16, 15, 12, 9, 7, 24, 24, 24, 23, 22, 22, 22, 21, 21, 29, 29, 29, 29, 29, 29, 29, 29, 29, 7, 6, 6, 6, 5, 5, 5, 5, 5, 26, 21, 18, 17, 14, 12, 7, 6, 3, 20, 18, 16, 16, 15, 12, 12, 10, 10, 14, 11, 10, 10, 8, 7, 6, 4, 2, 12, 10, 10, 9, 8, 6, 5, 5, 4, 22, 21, 19, 18, 18, 17, 17, 16, 15, 25, 21, 20, 19, 15, 11, 9, 6, 4, 28, 26, 23, 20, 18, 17, 14, 10, 8, 18, 16, 16, 15, 15, 14, 14, 13, 13, 16, 15, 14, 13, 11, 10, 8, 7, 7, 29, 28, 28, 28, 28, 27, 27, 27, 27, 27, 25, 23, 22, 22, 19, 18, 18, 17, 17, 17, 16, 15, 15, 14, 13, 13, 12, 25, 23, 23, 23, 22, 22, 21, 20, 20, 22, 20, 17, 17, 15, 13, 12, 11, 9, 25, 23, 20, 19, 17, 15, 14, 14, 11, 25, 22, 19, 18, 16, 15, 12, 10, 9, 20, 19, 19, 18, 18, 18, 18, 17, 17, 20, 20, 19, 18, 17, 17, 15, 15, 14, 26, 24, 23, 22, 21, 19, 18, 17, 15, 4, 4, 3, 3, 2, 2, 2, 1, 1, 24, 23, 22, 21, 21, 20, 20, 18, 18, 17, 16, 15, 12, 11, 9, 5, 4, 1, 30, 27, 24, 18, 16, 15, 10, 9, 7
 |19, 17, 14, 14, 12, 9, 9, 5, 5, 13, 13, 13, 13, 12, 12, 12, 11, 11, 20, 17, 16, 15, 14, 13, 13, 12, 11, 28, 28, 26, 26, 24, 23, 22, 19, 18, 22, 22, 22, 22, 21, 21, 21, 21, 21, 28, 26, 25, 24, 24, 24, 22, 22, 21, 17, 17, 16, 17, 16, 16, 16, 16, 16, 19, 16, 15, 14, 14, 13, 11, 10, 10, 12, 11, 9, 8, 7, 7, 5, 4, 3, 20, 16, 15, 12, 10, 10, 7, 6, 2, 8, 7, 5, 4, 4, 3, 2, 2, 1, 25, 24, 24, 24, 24, 23, 23, 23, 23, 16, 15, 14, 12, 12, 12, 10, 9, 9, 28, 26, 26, 23, 23, 20, 18, 17, 16, 29, 26, 21, 19, 17, 13, 10, 5, 4, 24, 22, 21, 20, 18, 16, 15, 11, 10, 19, 17, 16, 15, 15, 13, 12, 11, 11, 29, 29, 29, 28, 28, 28, 27, 27, 26, 27, 26, 26, 24, 23, 22, 22, 21, 20, 23, 22, 17, 16, 11, 10, 9, 4, 2, 11, 10, 10, 10, 9, 9, 8, 8, 7, 20, 18, 16, 13, 12, 8, 7, 4, 4, 8, 7, 6, 6, 4, 4, 3, 3, 2, 24, 24, 22, 19, 17, 16, 15, 13, 11, 5, 4, 3, 4, 4, 4, 4, 4, 4, 20, 20, 18, 16, 14, 11, 10, 7, 5, 26, 24, 23, 20, 20, 17, 14, 12, 11, 30, 29, 29, 29, 28, 28, 27, 27, 27, 29, 29, 29, 29, 28, 28, 28, 28, 28, 11, 10, 10, 10, 10, 10, 10, 10, 10, 21, 22, 21, 21, 21, 21, 22, 21, 21, 20, 19, 19, 19, 19, 19, 19, 19, 19, 13, 12, 12, 11, 10, 10, 10, 8, 8, 25, 23, 21, 19, 18, 15, 14, 11, 10, 9, 8, 7, 7, 6, 6, 6, 5, 5, 14, 13, 13, 12, 12, 12, 11, 11, 10, 19, 17, 17, 15, 14, 14, 12, 11, 11, 21, 19, 17, 14, 12, 10, 9, 4, 2, 21, 19, 19, 17, 16, 15, 14, 13, 12, 13, 13, 11, 11, 10, 8, 7, 6, 6, 29, 28, 28, 27, 28, 28, 28, 28, 28, 8, 6, 6, 6, 4, 4, 3, 2, 2, 20, 20, 17, 15, 12, 11, 9, 8, 6, 27, 23, 23, 19, 18, 16, 13, 11, 9, 22, 20, 20, 20, 19, 18, 17, 16, 16, 12, 11, 10, 9, 9, 7, 7, 6, 5, 12, 11, 11, 11, 10, 10, 10, 9, 9, 15, 14, 13, 12, 11, 11, 10, 9, 7, 24, 20, 18, 15, 14, 12, 9, 5, 3, 20, 20, 17, 16, 14, 14, 12, 10, 9|];